sat
(
  (define-fun H () String
    "")
  (define-fun I () String
    "")
  (define-fun N () String
    "")
  (define-fun J () String
    "a")
  (define-fun F () String
    "")
  (define-fun M () String
    "")
  (define-fun V () String
    "aa")
  (define-fun K () String
    "ababababb")
  (define-fun R () String
    "ab")
)
